c --- [ banner ] -------------------------------------------------------------
c 
c CaDiCaL Radically Simplified CDCL SAT Solver
c Copyright (c) 2016-2021 A. Biere, M. Fleury, N. Froleyks
c 
c Version 1.5.2 a5f15211db36c3956764e18194dd5bd63bf3b5e6
c g++ (GCC) 9.3.0 -Wall -Wextra -O3 -DNDEBUG
c Fri Oct 21 01:27:37 EDT 2022 Linux gra-login3 3.10.0-1160.66.1.el7.x86_64 x86_64
c 
c --- [ limit ] --------------------------------------------------------------
c 
c setting conflict limit to 200000 conflicts (due to '200000')
c 
c --- [ parsing input ] ------------------------------------------------------
c 
c reading DIMACS file from '33.cubes2129.adj'
c opening file to read '33.cubes2129.adj'
c found 'p cnf 6160 1595473' header
c parsed 1595473 clauses in 19.23 seconds process time
c closing file '33.cubes2129.adj'
c after reading 1457566762 bytes 1390.0 MB
c 
c --- [ options ] ------------------------------------------------------------
c 
c all options are set to their default value
c 
c --- [ solving ] ------------------------------------------------------------
c 
c time measured in process time since initialization
c 
c  seconds    reductions  redundant   irredundant
c          MB     restarts       trail       variables
c            level   conflicts       glue         remaining
c 
c * 19.23 1376  0 0   0    0    0  0% 0 1595422 2475 40%
c { 20.20 1424  0 0   0    0    0  0% 0 1595422 2475 40%
c i 21.19 1469 1265 0   0   11    8 42% 3 1595422 2459 40%
c i 22.90 1502 580 0   7   49   35 30% 5 1595422 2431 39%
c i 23.92 1512 342 0  17   91   73 31% 18 1595422 2430 39%
c i 23.95 1512 337 0  18   93   74 30% 18 1595422 2429 39%
c i 24.11 1517 335 0  18   94   74 30% 17 1595422 2428 39%
c i 24.65 1517 323 0  20  101   78 30% 17 1595422 2426 39%
c i 25.32 1523 266 0  27  132  106 29% 25 1595422 2425 39%
c i 25.36 1523 254 0  28  138  107 28% 24 1595422 2409 39%
c i 25.59 1525 240 0  30  148  115 28% 25 1595422 2408 39%
c i 25.68 1525 237 0  31  151  117 28% 25 1595422 2407 39%
c - 31.44 1472 160 1  55  301  221 26% 32 292578 2407 39%
c i 31.58 1472 159 1  55  306  222 26% 31 292578 2403 39%
c i 31.73 1391 159 1  56  310  225 26% 31 292578 2402 39%
c i 32.15 1391 149 1  59  360  248 25% 29 292578 2400 39%
c i 32.21 1391 149 1  59  371  258 26% 30 292578 2399 39%
c i 32.82 1391 134 1  71  452  329 26% 31 292578 2398 39%
c i 33.69 1391 129 1  92  545  414 27% 36 292578 2397 39%
c i 33.75 1391 128 1  94  550  418 27% 36 292578 2396 39%
c 
c  seconds     reductions  redundant   irredundant
c          MB      restarts       trail       variables
c             level   conflicts       glue         remaining
c 
c i 33.88 1391 127 1  97  569  433 27% 36 292578 2395 39%
c i 33.93 1391 127 1  99  576  439 27% 37 292578 2394 39%
c i 34.02 1391 126 1 100  581  443 27% 36 292578 2393 39%
c i 34.02 1391 126 1 101  582  443 27% 36 292578 2392 39%
c i 34.28 1391 125 1 104  600  459 27% 36 292578 2391 39%
c i 34.30 1391 124 1 104  602  460 27% 36 292578 2390 39%
c i 34.30 1391 124 1 104  604  461 27% 36 292578 2389 39%
c i 34.31 1391 124 1 104  606  462 27% 36 292578 2388 39%
c i 34.31 1391 124 1 104  607  462 27% 36 292578 2387 39%
c i 34.33 1391 123 1 104  618  471 27% 36 292578 2386 39%
c i 34.85 1392 114 1 113  721  555 27% 37 292578 2385 39%
c i 34.92 1392 110 1 113  753  586 27% 36 292578 2384 39%
c i 34.95 1392 103 1 113  834  635 28% 35 292578 2383 39%
c i 35.60 1392 101 1 126  951  731 27% 35 292578 2382 39%
c } 35.98 1392 103 1 128 1001  770 27% 36 292578 2382 39%
c [ 35.98 1392  0 1 128 1001  770  0% 0 292578 2382 39%
c O 35.98 1392  0 1 128 1002  770 11% 0 292578 2382 39%
c i 35.98 1392  0 1 128 1002  770 11% 0 292578 2349 38%
c i 35.98 1392  1 1 128 1003  770 11% 0 292578 2332 38%
c i 36.30 1392 24 1 128 1119  858 31% 16 292578 2331 38%
c 
c  seconds    reductions  redundant   irredundant
c          MB     restarts       trail       variables
c            level   conflicts       glue         remaining
c 
c i 36.31 1392 23 1 128 1123  860 31% 16 292578 2330 38%
c i 36.33 1392 23 1 128 1140  872 31% 16 292578 2329 38%
c - 36.99 1536 24 2 128 1181  812 31% 18 291681 2329 38%
c i 37.26 1536 24 2 128 1315  900 31% 19 291681 2328 38%
c i 37.28 1536 25 2 128 1370  937 31% 20 291681 2327 38%
c i 37.34 1536 25 2 128 1491 1018 31% 20 291681 2326 38%
c i 37.35 1536 25 2 128 1534 1045 31% 21 291681 2325 38%
c i 37.36 1536 25 2 128 1541 1048 31% 21 291681 2324 38%
c i 37.52 1536 24 2 128 2007 1326 31% 20 291681 2323 38%
c - 38.21 1534 24 3 129 2503 1253 31% 21 291663 2323 38%
c ] 38.71 1534 23 3 129 3001 1501 53% 20 291663 2323 38%
c { 38.71 1534 103 3 129 3001 1501 73% 36 291663 2323 38%
c F 38.75 1534 103 3 130 3003 1503 72% 36 291663 2323 38%
c i 38.85 1534 101 3 134 3021 1511 72% 36 291663 2282 37%
c i 39.02 1534 98 3 134 3057 1537 71% 35 291663 2281 37%
c i 39.02 1534 98 3 134 3067 1544 71% 35 291663 2280 37%
c i 39.04 1534 97 3 134 3081 1556 70% 34 291663 2279 37%
c i 39.05 1534 96 3 134 3091 1561 70% 34 291663 2278 37%
c i 39.13 1534 92 3 134 3167 1618 69% 34 291663 2277 37%
c i 39.13 1534 92 3 134 3171 1621 69% 34 291663 2276 37%
c 
c  seconds    reductions  redundant   irredundant
c          MB     restarts       trail       variables
c            level   conflicts       glue         remaining
c 
c i 39.44 1534 90 3 145 3285 1707 67% 34 291663 2275 37%
c i 39.78 1534 91 3 163 3345 1762 66% 35 291663 2274 37%
c i 39.96 1534 84 3 172 3488 1865 64% 34 291663 2273 37%
c i 40.01 1534 82 3 172 3550 1911 64% 33 291663 2272 37%
c i 40.02 1534 81 3 172 3563 1920 64% 33 291663 2271 37%
c i 40.05 1534 80 3 172 3635 1972 63% 32 291663 2270 37%
c i 40.11 1534 77 3 174 3779 2077 62% 32 291663 2269 37%
c i 40.14 1534 77 3 176 3793 2089 62% 33 291663 2268 37%
c i 40.37 1534 78 3 194 3870 2154 61% 34 291663 2267 37%
c i 40.52 1534 77 3 201 3902 2182 61% 34 291663 2266 37%
c i 40.56 1534 77 3 201 3923 2198 61% 34 291663 2265 37%
c i 40.57 1534 77 3 201 3936 2210 61% 34 291663 2264 37%
c i 40.62 1534 77 3 208 3977 2245 60% 34 291663 2263 37%
c i 40.90 1534 78 3 232 4078 2334 60% 35 291663 2262 37%
c i 40.95 1534 76 3 237 4188 2425 59% 35 291663 2261 37%
c - 41.33 1496 75 4 237 4260 1807 59% 35 225624 2261 37%
c i 41.40 1496 74 4 237 4297 1834 59% 35 225624 2260 37%
c i 41.46 1496 72 4 237 4390 1906 58% 34 225624 2259 37%
c i 41.50 1496 70 4 237 4515 1987 58% 34 225624 2258 37%
c d 42.08 1496 65 4 251 5000 2344 57% 33 200933 2248 36%
c 
c  seconds    reductions  redundant   irredundant
c          MB     restarts       trail       variables
c            level   conflicts       glue         remaining
c 
c 3 42.10 1496 65 4 251 5000 3476 57% 33 200933 2248 36%
c 2 42.14 1496 65 4 251 5000 3561 57% 33 200931 2246 36%
c p 44.56 1496 65 4 251 5000 7991 57% 33 200931 2152 35%
c d 44.90 1496 65 4 251 5000 7420 57% 33 151722 2143 35%
c # 45.37 1496 54 4 251 6007 8017 55% 29 151722 2143 35%
c - 45.57 1394 52 5 251 6292 2609 55% 29 151722 2143 35%
c } 45.72 1394 48 5 251 7002 3100 55% 27 151722 2143 35%
c [ 45.72 1394 23 5 251 7002 3100 53% 20 151722 2143 35%
c - 46.13 1394 29 6 252 8419 2875 51% 24 151722 2143 35%
c I 46.60 1394 30 6 253 10008 3869 50% 25 151722 2143 35%
c - 47.32 1394 33 7 254 10899 3144 49% 27 151722 2143 35%
c - 49.14 1394 35 8 256 13734 3564 49% 29 151722 2143 35%
c ] 49.72 1394 35 8 256 15002 4404 49% 30 151722 2143 35%
c { 49.72 1394 48 8 256 15002 4404 55% 27 151722 2143 35%
c 2 49.76 1394 48 8 256 15002 5695 55% 27 151720 2143 35%
c p 51.28 1394 48 8 256 15002 9306 55% 27 151720 2143 35%
c B 51.46 1394 48 8 258 15009 9313 55% 27 151720 2143 35%
c } 52.60 1394 47 8 331 15698 9793 54% 28 151720 2143 35%
c 1 52.60 1394 47 8 331 15698 9793 54% 28 151720 2143 35%
c 
c --- [ writing output ] -----------------------------------------------------
c 
c writing simplified CNF to DIMACS file 'simp/33.cubes2129.adj.simp1'
c * 52.60 1394 47 8 331 15698 9793 54% 28 151720 2143 35%
c opening file to write 'simp/33.cubes2129.adj.simp1'
c writing 'p cnf 6160 151720' header
c closing file 'simp/33.cubes2129.adj.simp1'
c after writing 79201897 bytes 75.5 MB
c wrote 151720 clauses in 0.57 seconds process time
c 
c --- [ writing extension ] --------------------------------------------------
c 
c writing extension stack to 'simp/33.cubes2129.adj.ext1'
c opening file to write 'simp/33.cubes2129.adj.ext1'
c closing file 'simp/33.cubes2129.adj.ext1'
c after writing 13233 bytes 0.0 MB
c wrote 892 witnesses in 0.00 seconds process time
c 
c --- [ result ] -------------------------------------------------------------
c 
s SATISFIABLE
c 
c --- [ run-time profiling ] -------------------------------------------------
c 
c process time taken by individual solving procedures
c (percentage relative to process time for solving)
c 
c        28.56   85.60% search
c        20.85   62.50% unstable
c        19.23   57.63% parse
c         6.73   20.18% stable
c         4.81   14.40% simplify
c         3.94   11.81% probe
c         0.97    2.91% lucky
c         0.06    0.18% ternary
c   =================================
c        33.37   62.76% solve
c 
c last line shows process time for solving
c (percentage relative to total process time)
c 
c --- [ statistics ] ---------------------------------------------------------
c 
c chronological:              3155        20.10 %  of conflicts
c conflicts:                 15698       470.48    per second
c decisions:                 52688      1579.09    per second
c fixed:                       854        13.86 %  of all variables
c learned:                   15405        98.13 %  per conflict
c learned_lits:            2974234       100.00 %  learned literals
c minimized:                     0         0.00 %  learned literals
c shrunken:                2007248        67.49 %  learned literals
c minishrunken:             151382         5.09 %  learned literals
c propagations:            2332399         0.07 M  per second
c reduced:                    5910        37.65 %  per conflict
c rephased:                      5      3139.60    interval
c restarts:                    331        47.43    interval
c stabilizing:                   2        63.70 %  of conflicts
c substituted:                  19         0.31 %  of all variables
c subsumed:                   4742         0.14 %  of all clauses
c ternary:                    2587         0.62 %  of resolved
c weakened:                     38         2.00    average size
c 
c seconds are measured in process time for solving
c 
c --- [ resources ] ----------------------------------------------------------
c 
c total process time since initialization:        53.17    seconds
c total real time since initialization:           53.25    seconds
c maximum resident set size of process:         1677.96    MB
c 
c --- [ shutting down ] ------------------------------------------------------
c 
c exit 10
WARNING! DIMACS header mismatch: wrong number of variables.
============================[ Problem Statistics ]=============================
|                                                                             |
|  Number of variables:          6120                                         |
|  Number of clauses:          151726                                         |
|  Parse time:                   1.01 s                                       |
|  Simplification time:          0.02 s                                       |
|                                                                             |
============================[ Search Statistics ]====================================================
| Conflicts |          ORIGINAL         |          LEARNT          | Num Sols |      SUBGRAPHS      |
|           |    Vars  Clauses Literals |    Limit  Clauses Lit/Cl |          | Canonical Noncanon. |
=====================================================================================================
|       101 |    6026   151727 16667368 |     2000      101    173 |        0 |        18         1 |
|       251 |    6026   151727 16667368 |     2000      251    150 |        0 |        18         1 |
|       493 |    6026   151744 16667641 |     2000      493    136 |        0 |        33        18 |
|       910 |    6026   151824 16668598 |     2000      910    116 |        0 |        48        98 |
|      1503 |    6026   151911 16669915 |     2000     1503    103 |        0 |        54       185 |
|      2347 |    6026   151996 16671079 |     3602     1349     54 |        0 |        76       270 |
|      3575 |    6026   152085 16672917 |     3602     2577     79 |        0 |        95       359 |
|      5668 |    6026   152470 16676654 |     5006     2874     58 |        0 |       181       744 |
|      8369 |    6026   152609 16678848 |     6309     3078     43 |        0 |       195       883 |
|     12461 |    6026   152857 16683294 |     7558     4019     43 |        0 |       226      1131 |
|     18274 |    6026   152904 16684034 |     8783     6057     56 |        0 |       247      1178 |
|     27085 |    6007   153066 16686071 |    11205     5490     36 |        0 |       302      1340 |
|     40354 |    6002   153361 16690710 |    13601     6955     30 |        0 |       370      1635 |
|     59857 |    6002   153403 16691542 |    16003    12260     51 |        0 |       389      1677 |
|     89175 |    6002   153529 16693600 |    19615    15790     52 |        0 |       442      1803 |
|    133105 |    6002   153670 16696704 |    24406    16911     47 |        0 |       498      1944 |
|    198924 |    6002   140393 15207651 |    30418    15742     31 |        0 |       577      2079 |
|    297546 |    6002   140489 15209734 |    36413    32359     54 |        0 |       626      2175 |
|    449449 |    6002   144603 15280321 |    44814    44263     53 |        3 |      1656      6286 |
|    671947 |    6002   145418 15298777 |    55612    43559     42 |        5 |      2097      7099 |
=====================================================================================================
Number of solutions   : 6
Canonical subgraphs   : 2191           (7 /sec)
          order  3    : 1              (166667 /sec)
          order  4    : 1              (500000 /sec)
          order  5    : 1              (200000 /sec)
          order  6    : 1              (52632 /sec)
          order  7    : 1              (8264 /sec)
          order  8    : 2              (1365 /sec)
          order  9    : 3              (419 /sec)
          order 10    : 4              (157 /sec)
          order 11    : 9              (74 /sec)
          order 12    : 29             (41 /sec)
          order 13    : 30             (32 /sec)
          order 14    : 22             (21 /sec)
          order 15    : 133            (14 /sec)
          order 16    : 714            (9 /sec)
          order 17    : 886            (7 /sec)
          order 18    : 280            (5 /sec)
          order 19    : 36             (5 /sec)
          order 20    : 18             (6 /sec)
          order 21    : 14             (5 /sec)
          order 22    : 6              (0 /sec)
Noncanonical subgraphs: 7324           (205 /sec)
          order  3    : 0              (-nan /sec)
          order  4    : 0              (-nan /sec)
          order  5    : 0              (-nan /sec)
          order  6    : 0              (-nan /sec)
          order  7    : 0              (-nan /sec)
          order  8    : 0              (-nan /sec)
          order  9    : 0              (-nan /sec)
          order 10    : 0              (-nan /sec)
          order 11    : 0              (-nan /sec)
          order 12    : 0              (-nan /sec)
          order 13    : 125            (27914 /sec)
          order 14    : 76             (31046 /sec)
          order 15    : 598            (5721 /sec)
          order 16    : 5173           (558 /sec)
          order 17    : 465            (227 /sec)
          order 18    : 851            (47 /sec)
          order 19    : 4              (22 /sec)
          order 20    : 0              (-nan /sec)
          order 21    : 0              (-nan /sec)
Canonicity checking   : 306.897 s
Noncanonicity checking: 35.6572 s
Total canonicity time : 342.554 s
database reductions   : 48
restarts              : 1661
conflicts             : 786502         (1440 /sec)
decisions             : 1023156        (0.00 % random) (1873 /sec)
propagations          : 79869615       (146242 /sec)
conflict literals     : 65059373       (59.90 % deleted)
actual reward         : 0.127520
Memory used           : 229.00 MB
CPU time              : 546.146 s

UNSATISFIABLE
